\ SCIP STATISTICS
\   Problem name     : model
\   Variables        : 2 (0 binary, 0 integer, 0 implicit integer, 2 continuous)
\   Constraints      : 8
Maximize
 Obj: +300 x[std] +400 x[lux]
Subject to
 c1: +2 x[std] +4 x[lux] <= +800
 c2: +0.5 x[lux] -0.5 x[std] <= +0
 c3: +1 x[lux] >= +0
 c4: +1 x[lux] <= +300
 c5: +3 x[std] +5 x[lux] <= +1200
 c6: +0.5 x[lux] -0.5 x[std] <= +0
 c7: +1 x[lux] >= +0
 c8: +1 x[lux] <= +300
Bounds
End
